(set-info :category "industrial")
(set-info :status sat)
(declare-fun x02 () (_ BitVec 8))
(declare-fun x03 () (_ BitVec 8))
(declare-fun x05 () (_ BitVec 8))
(declare-fun x06 () (_ BitVec 8))
(declare-fun x07 () (_ BitVec 8))
(declare-fun x11 () (_ BitVec 8))
(declare-fun x13 () (_ BitVec 8))
(declare-fun x14 () (_ BitVec 8))
(declare-fun x16 () (_ BitVec 8))
(declare-fun x18 () (_ BitVec 8))
(declare-fun x21 () (_ BitVec 8))
(declare-fun x22 () (_ BitVec 8))
(declare-fun x23 () (_ BitVec 8))
(declare-fun x24 () (_ BitVec 8))
(declare-fun x27 () (_ BitVec 8))
(declare-fun x28 () (_ BitVec 8))
(declare-fun x30 () (_ BitVec 8))
(declare-fun x33 () (_ BitVec 8))
(declare-fun x35 () (_ BitVec 8))
(declare-fun x37 () (_ BitVec 8))
(declare-fun x40 () (_ BitVec 8))
(declare-fun x42 () (_ BitVec 8))
(declare-fun x43 () (_ BitVec 8))
(declare-fun x46 () (_ BitVec 8))
(declare-fun x47 () (_ BitVec 8))
(declare-fun x51 () (_ BitVec 8))
(declare-fun x54 () (_ BitVec 8))
(declare-fun x55 () (_ BitVec 8))
(declare-fun x56 () (_ BitVec 8))
(declare-fun x58 () (_ BitVec 8))
(declare-fun x60 () (_ BitVec 8))
(declare-fun x63 () (_ BitVec 8))
(declare-fun x64 () (_ BitVec 8))
(declare-fun x66 () (_ BitVec 8))
(declare-fun x67 () (_ BitVec 8))
(declare-fun x70 () (_ BitVec 8))
(declare-fun x71 () (_ BitVec 8))
(declare-fun x72 () (_ BitVec 8))
(declare-fun x74 () (_ BitVec 8))
(declare-fun x76 () (_ BitVec 8))
(declare-fun x80 () (_ BitVec 8))
(declare-fun x81 () (_ BitVec 8))
(declare-fun x83 () (_ BitVec 8))
(declare-fun x85 () (_ BitVec 8))
(declare-fun x87 () (_ BitVec 8))
(declare-fun x88 () (_ BitVec 8))
(assert (bvult x02 (_ bv9 8)))
(assert (bvult x03 (_ bv9 8)))
(assert (bvult x05 (_ bv9 8)))
(assert (bvult x06 (_ bv9 8)))
(assert (bvult x07 (_ bv9 8)))
(assert (bvult x11 (_ bv9 8)))
(assert (bvult x13 (_ bv9 8)))
(assert (bvult x14 (_ bv9 8)))
(assert (bvult x16 (_ bv9 8)))
(assert (bvult x18 (_ bv9 8)))
(assert (bvult x21 (_ bv9 8)))
(assert (bvult x22 (_ bv9 8)))
(assert (bvult x23 (_ bv9 8)))
(assert (bvult x24 (_ bv9 8)))
(assert (bvult x27 (_ bv9 8)))
(assert (bvult x28 (_ bv9 8)))
(assert (bvult x30 (_ bv9 8)))
(assert (bvult x33 (_ bv9 8)))
(assert (bvult x35 (_ bv9 8)))
(assert (bvult x37 (_ bv9 8)))
(assert (bvult x40 (_ bv9 8)))
(assert (bvult x42 (_ bv9 8)))
(assert (bvult x43 (_ bv9 8)))
(assert (bvult x46 (_ bv9 8)))
(assert (bvult x47 (_ bv9 8)))
(assert (bvult x51 (_ bv9 8)))
(assert (bvult x54 (_ bv9 8)))
(assert (bvult x55 (_ bv9 8)))
(assert (bvult x56 (_ bv9 8)))
(assert (bvult x58 (_ bv9 8)))
(assert (bvult x60 (_ bv9 8)))
(assert (bvult x63 (_ bv9 8)))
(assert (bvult x64 (_ bv9 8)))
(assert (bvult x66 (_ bv9 8)))
(assert (bvult x67 (_ bv9 8)))
(assert (bvult x70 (_ bv9 8)))
(assert (bvult x71 (_ bv9 8)))
(assert (bvult x72 (_ bv9 8)))
(assert (bvult x74 (_ bv9 8)))
(assert (bvult x76 (_ bv9 8)))
(assert (bvult x80 (_ bv9 8)))
(assert (bvult x81 (_ bv9 8)))
(assert (bvult x83 (_ bv9 8)))
(assert (bvult x85 (_ bv9 8)))
(assert (bvult x87 (_ bv9 8)))
(assert (bvult x88 (_ bv9 8)))
(assert (not (= (_ bv6 8) (_ bv3 8))))
(assert (not (= (_ bv6 8) x02)))
(assert (not (= (_ bv6 8) x03)))
(assert (not (= (_ bv6 8) (_ bv1 8))))
(assert (not (= (_ bv6 8) x05)))
(assert (not (= (_ bv6 8) x06)))
(assert (not (= (_ bv6 8) x07)))
(assert (not (= (_ bv6 8) (_ bv7 8))))
(assert (not (= (_ bv3 8) x02)))
(assert (not (= (_ bv3 8) x03)))
(assert (not (= (_ bv3 8) (_ bv1 8))))
(assert (not (= (_ bv3 8) x05)))
(assert (not (= (_ bv3 8) x06)))
(assert (not (= (_ bv3 8) x07)))
(assert (not (= (_ bv3 8) (_ bv7 8))))
(assert (not (= x02 x03)))
(assert (not (= x02 (_ bv1 8))))
(assert (not (= x02 x05)))
(assert (not (= x02 x06)))
(assert (not (= x02 x07)))
(assert (not (= x02 (_ bv7 8))))
(assert (not (= x03 (_ bv1 8))))
(assert (not (= x03 x05)))
(assert (not (= x03 x06)))
(assert (not (= x03 x07)))
(assert (not (= x03 (_ bv7 8))))
(assert (not (= (_ bv1 8) x05)))
(assert (not (= (_ bv1 8) x06)))
(assert (not (= (_ bv1 8) x07)))
(assert (not (= (_ bv1 8) (_ bv7 8))))
(assert (not (= x05 x06)))
(assert (not (= x05 x07)))
(assert (not (= x05 (_ bv7 8))))
(assert (not (= x06 x07)))
(assert (not (= x06 (_ bv7 8))))
(assert (not (= x07 (_ bv7 8))))
(assert (not (= (_ bv8 8) x11)))
(assert (not (= (_ bv8 8) (_ bv7 8))))
(assert (not (= (_ bv8 8) x13)))
(assert (not (= (_ bv8 8) x14)))
(assert (not (= (_ bv8 8) (_ bv6 8))))
(assert (not (= (_ bv8 8) x16)))
(assert (not (= (_ bv8 8) (_ bv5 8))))
(assert (not (= (_ bv8 8) x18)))
(assert (not (= x11 (_ bv7 8))))
(assert (not (= x11 x13)))
(assert (not (= x11 x14)))
(assert (not (= x11 (_ bv6 8))))
(assert (not (= x11 x16)))
(assert (not (= x11 (_ bv5 8))))
(assert (not (= x11 x18)))
(assert (not (= (_ bv7 8) x13)))
(assert (not (= (_ bv7 8) x14)))
(assert (not (= (_ bv7 8) (_ bv6 8))))
(assert (not (= (_ bv7 8) x16)))
(assert (not (= (_ bv7 8) (_ bv5 8))))
(assert (not (= (_ bv7 8) x18)))
(assert (not (= x13 x14)))
(assert (not (= x13 (_ bv6 8))))
(assert (not (= x13 x16)))
(assert (not (= x13 (_ bv5 8))))
(assert (not (= x13 x18)))
(assert (not (= x14 (_ bv6 8))))
(assert (not (= x14 x16)))
(assert (not (= x14 (_ bv5 8))))
(assert (not (= x14 x18)))
(assert (not (= (_ bv6 8) x16)))
(assert (not (= (_ bv6 8) (_ bv5 8))))
(assert (not (= (_ bv6 8) x18)))
(assert (not (= x16 (_ bv5 8))))
(assert (not (= x16 x18)))
(assert (not (= (_ bv5 8) x18)))
(assert (not (= (_ bv2 8) x21)))
(assert (not (= (_ bv2 8) x22)))
(assert (not (= (_ bv2 8) x23)))
(assert (not (= (_ bv2 8) x24)))
(assert (not (= (_ bv2 8) (_ bv9 8))))
(assert (not (= (_ bv2 8) (_ bv4 8))))
(assert (not (= (_ bv2 8) x27)))
(assert (not (= (_ bv2 8) x28)))
(assert (not (= x21 x22)))
(assert (not (= x21 x23)))
(assert (not (= x21 x24)))
(assert (not (= x21 (_ bv9 8))))
(assert (not (= x21 (_ bv4 8))))
(assert (not (= x21 x27)))
(assert (not (= x21 x28)))
(assert (not (= x22 x23)))
(assert (not (= x22 x24)))
(assert (not (= x22 (_ bv9 8))))
(assert (not (= x22 (_ bv4 8))))
(assert (not (= x22 x27)))
(assert (not (= x22 x28)))
(assert (not (= x23 x24)))
(assert (not (= x23 (_ bv9 8))))
(assert (not (= x23 (_ bv4 8))))
(assert (not (= x23 x27)))
(assert (not (= x23 x28)))
(assert (not (= x24 (_ bv9 8))))
(assert (not (= x24 (_ bv4 8))))
(assert (not (= x24 x27)))
(assert (not (= x24 x28)))
(assert (not (= (_ bv9 8) (_ bv4 8))))
(assert (not (= (_ bv9 8) x27)))
(assert (not (= (_ bv9 8) x28)))
(assert (not (= (_ bv4 8) x27)))
(assert (not (= (_ bv4 8) x28)))
(assert (not (= x27 x28)))
(assert (not (= x30 (_ bv1 8))))
(assert (not (= x30 (_ bv3 8))))
(assert (not (= x30 x33)))
(assert (not (= x30 (_ bv5 8))))
(assert (not (= x30 x35)))
(assert (not (= x30 (_ bv2 8))))
(assert (not (= x30 x37)))
(assert (not (= x30 (_ bv9 8))))
(assert (not (= (_ bv1 8) (_ bv3 8))))
(assert (not (= (_ bv1 8) x33)))
(assert (not (= (_ bv1 8) (_ bv5 8))))
(assert (not (= (_ bv1 8) x35)))
(assert (not (= (_ bv1 8) (_ bv2 8))))
(assert (not (= (_ bv1 8) x37)))
(assert (not (= (_ bv1 8) (_ bv9 8))))
(assert (not (= (_ bv3 8) x33)))
(assert (not (= (_ bv3 8) (_ bv5 8))))
(assert (not (= (_ bv3 8) x35)))
(assert (not (= (_ bv3 8) (_ bv2 8))))
(assert (not (= (_ bv3 8) x37)))
(assert (not (= (_ bv3 8) (_ bv9 8))))
(assert (not (= x33 (_ bv5 8))))
(assert (not (= x33 x35)))
(assert (not (= x33 (_ bv2 8))))
(assert (not (= x33 x37)))
(assert (not (= x33 (_ bv9 8))))
(assert (not (= (_ bv5 8) x35)))
(assert (not (= (_ bv5 8) (_ bv2 8))))
(assert (not (= (_ bv5 8) x37)))
(assert (not (= (_ bv5 8) (_ bv9 8))))
(assert (not (= x35 (_ bv2 8))))
(assert (not (= x35 x37)))
(assert (not (= x35 (_ bv9 8))))
(assert (not (= (_ bv2 8) x37)))
(assert (not (= (_ bv2 8) (_ bv9 8))))
(assert (not (= x37 (_ bv9 8))))
(assert (not (= x40 (_ bv8 8))))
(assert (not (= x40 x42)))
(assert (not (= x40 x43)))
(assert (not (= x40 (_ bv3 8))))
(assert (not (= x40 (_ bv1 8))))
(assert (not (= x40 x46)))
(assert (not (= x40 x47)))
(assert (not (= x40 (_ bv4 8))))
(assert (not (= (_ bv8 8) x42)))
(assert (not (= (_ bv8 8) x43)))
(assert (not (= (_ bv8 8) (_ bv3 8))))
(assert (not (= (_ bv8 8) (_ bv1 8))))
(assert (not (= (_ bv8 8) x46)))
(assert (not (= (_ bv8 8) x47)))
(assert (not (= (_ bv8 8) (_ bv4 8))))
(assert (not (= x42 x43)))
(assert (not (= x42 (_ bv3 8))))
(assert (not (= x42 (_ bv1 8))))
(assert (not (= x42 x46)))
(assert (not (= x42 x47)))
(assert (not (= x42 (_ bv4 8))))
(assert (not (= x43 (_ bv3 8))))
(assert (not (= x43 (_ bv1 8))))
(assert (not (= x43 x46)))
(assert (not (= x43 x47)))
(assert (not (= x43 (_ bv4 8))))
(assert (not (= (_ bv3 8) (_ bv1 8))))
(assert (not (= (_ bv3 8) x46)))
(assert (not (= (_ bv3 8) x47)))
(assert (not (= (_ bv3 8) (_ bv4 8))))
(assert (not (= (_ bv1 8) x46)))
(assert (not (= (_ bv1 8) x47)))
(assert (not (= (_ bv1 8) (_ bv4 8))))
(assert (not (= x46 x47)))
(assert (not (= x46 (_ bv4 8))))
(assert (not (= x47 (_ bv4 8))))
(assert (not (= (_ bv4 8) x51)))
(assert (not (= (_ bv4 8) (_ bv5 8))))
(assert (not (= (_ bv4 8) (_ bv2 8))))
(assert (not (= (_ bv4 8) x54)))
(assert (not (= (_ bv4 8) x55)))
(assert (not (= (_ bv4 8) x56)))
(assert (not (= (_ bv4 8) (_ bv7 8))))
(assert (not (= (_ bv4 8) x58)))
(assert (not (= x51 (_ bv5 8))))
(assert (not (= x51 (_ bv2 8))))
(assert (not (= x51 x54)))
(assert (not (= x51 x55)))
(assert (not (= x51 x56)))
(assert (not (= x51 (_ bv7 8))))
(assert (not (= x51 x58)))
(assert (not (= (_ bv5 8) (_ bv2 8))))
(assert (not (= (_ bv5 8) x54)))
(assert (not (= (_ bv5 8) x55)))
(assert (not (= (_ bv5 8) x56)))
(assert (not (= (_ bv5 8) (_ bv7 8))))
(assert (not (= (_ bv5 8) x58)))
(assert (not (= (_ bv2 8) x54)))
(assert (not (= (_ bv2 8) x55)))
(assert (not (= (_ bv2 8) x56)))
(assert (not (= (_ bv2 8) (_ bv7 8))))
(assert (not (= (_ bv2 8) x58)))
(assert (not (= x54 x55)))
(assert (not (= x54 x56)))
(assert (not (= x54 (_ bv7 8))))
(assert (not (= x54 x58)))
(assert (not (= x55 x56)))
(assert (not (= x55 (_ bv7 8))))
(assert (not (= x55 x58)))
(assert (not (= x56 (_ bv7 8))))
(assert (not (= x56 x58)))
(assert (not (= (_ bv7 8) x58)))
(assert (not (= x60 (_ bv4 8))))
(assert (not (= x60 (_ bv6 8))))
(assert (not (= x60 x63)))
(assert (not (= x60 x64)))
(assert (not (= x60 (_ bv5 8))))
(assert (not (= x60 x66)))
(assert (not (= x60 x67)))
(assert (not (= x60 (_ bv3 8))))
(assert (not (= (_ bv4 8) (_ bv6 8))))
(assert (not (= (_ bv4 8) x63)))
(assert (not (= (_ bv4 8) x64)))
(assert (not (= (_ bv4 8) (_ bv5 8))))
(assert (not (= (_ bv4 8) x66)))
(assert (not (= (_ bv4 8) x67)))
(assert (not (= (_ bv4 8) (_ bv3 8))))
(assert (not (= (_ bv6 8) x63)))
(assert (not (= (_ bv6 8) x64)))
(assert (not (= (_ bv6 8) (_ bv5 8))))
(assert (not (= (_ bv6 8) x66)))
(assert (not (= (_ bv6 8) x67)))
(assert (not (= (_ bv6 8) (_ bv3 8))))
(assert (not (= x63 x64)))
(assert (not (= x63 (_ bv5 8))))
(assert (not (= x63 x66)))
(assert (not (= x63 x67)))
(assert (not (= x63 (_ bv3 8))))
(assert (not (= x64 (_ bv5 8))))
(assert (not (= x64 x66)))
(assert (not (= x64 x67)))
(assert (not (= x64 (_ bv3 8))))
(assert (not (= (_ bv5 8) x66)))
(assert (not (= (_ bv5 8) x67)))
(assert (not (= (_ bv5 8) (_ bv3 8))))
(assert (not (= x66 x67)))
(assert (not (= x66 (_ bv3 8))))
(assert (not (= x67 (_ bv3 8))))
(assert (not (= x70 x71)))
(assert (not (= x70 x72)))
(assert (not (= x70 (_ bv4 8))))
(assert (not (= x70 x74)))
(assert (not (= x70 (_ bv7 8))))
(assert (not (= x70 x76)))
(assert (not (= x70 (_ bv1 8))))
(assert (not (= x70 (_ bv5 8))))
(assert (not (= x71 x72)))
(assert (not (= x71 (_ bv4 8))))
(assert (not (= x71 x74)))
(assert (not (= x71 (_ bv7 8))))
(assert (not (= x71 x76)))
(assert (not (= x71 (_ bv1 8))))
(assert (not (= x71 (_ bv5 8))))
(assert (not (= x72 (_ bv4 8))))
(assert (not (= x72 x74)))
(assert (not (= x72 (_ bv7 8))))
(assert (not (= x72 x76)))
(assert (not (= x72 (_ bv1 8))))
(assert (not (= x72 (_ bv5 8))))
(assert (not (= (_ bv4 8) x74)))
(assert (not (= (_ bv4 8) (_ bv7 8))))
(assert (not (= (_ bv4 8) x76)))
(assert (not (= (_ bv4 8) (_ bv1 8))))
(assert (not (= (_ bv4 8) (_ bv5 8))))
(assert (not (= x74 (_ bv7 8))))
(assert (not (= x74 x76)))
(assert (not (= x74 (_ bv1 8))))
(assert (not (= x74 (_ bv5 8))))
(assert (not (= (_ bv7 8) x76)))
(assert (not (= (_ bv7 8) (_ bv1 8))))
(assert (not (= (_ bv7 8) (_ bv5 8))))
(assert (not (= x76 (_ bv1 8))))
(assert (not (= x76 (_ bv5 8))))
(assert (not (= (_ bv1 8) (_ bv5 8))))
(assert (not (= x80 x81)))
(assert (not (= x80 (_ bv9 8))))
(assert (not (= x80 x83)))
(assert (not (= x80 (_ bv2 8))))
(assert (not (= x80 x85)))
(assert (not (= x80 (_ bv6 8))))
(assert (not (= x80 x87)))
(assert (not (= x80 x88)))
(assert (not (= x81 (_ bv9 8))))
(assert (not (= x81 x83)))
(assert (not (= x81 (_ bv2 8))))
(assert (not (= x81 x85)))
(assert (not (= x81 (_ bv6 8))))
(assert (not (= x81 x87)))
(assert (not (= x81 x88)))
(assert (not (= (_ bv9 8) x83)))
(assert (not (= (_ bv9 8) (_ bv2 8))))
(assert (not (= (_ bv9 8) x85)))
(assert (not (= (_ bv9 8) (_ bv6 8))))
(assert (not (= (_ bv9 8) x87)))
(assert (not (= (_ bv9 8) x88)))
(assert (not (= x83 (_ bv2 8))))
(assert (not (= x83 x85)))
(assert (not (= x83 (_ bv6 8))))
(assert (not (= x83 x87)))
(assert (not (= x83 x88)))
(assert (not (= (_ bv2 8) x85)))
(assert (not (= (_ bv2 8) (_ bv6 8))))
(assert (not (= (_ bv2 8) x87)))
(assert (not (= (_ bv2 8) x88)))
(assert (not (= x85 (_ bv6 8))))
(assert (not (= x85 x87)))
(assert (not (= x85 x88)))
(assert (not (= (_ bv6 8) x87)))
(assert (not (= (_ bv6 8) x88)))
(assert (not (= x87 x88)))
(assert (not (= (_ bv6 8) (_ bv8 8))))
(assert (not (= (_ bv6 8) (_ bv2 8))))
(assert (not (= (_ bv6 8) x30)))
(assert (not (= (_ bv6 8) x40)))
(assert (not (= (_ bv6 8) (_ bv4 8))))
(assert (not (= (_ bv6 8) x60)))
(assert (not (= (_ bv6 8) x70)))
(assert (not (= (_ bv6 8) x80)))
(assert (not (= (_ bv8 8) (_ bv2 8))))
(assert (not (= (_ bv8 8) x30)))
(assert (not (= (_ bv8 8) x40)))
(assert (not (= (_ bv8 8) (_ bv4 8))))
(assert (not (= (_ bv8 8) x60)))
(assert (not (= (_ bv8 8) x70)))
(assert (not (= (_ bv8 8) x80)))
(assert (not (= (_ bv2 8) x30)))
(assert (not (= (_ bv2 8) x40)))
(assert (not (= (_ bv2 8) (_ bv4 8))))
(assert (not (= (_ bv2 8) x60)))
(assert (not (= (_ bv2 8) x70)))
(assert (not (= (_ bv2 8) x80)))
(assert (not (= x30 x40)))
(assert (not (= x30 (_ bv4 8))))
(assert (not (= x30 x60)))
(assert (not (= x30 x70)))
(assert (not (= x30 x80)))
(assert (not (= x40 (_ bv4 8))))
(assert (not (= x40 x60)))
(assert (not (= x40 x70)))
(assert (not (= x40 x80)))
(assert (not (= (_ bv4 8) x60)))
(assert (not (= (_ bv4 8) x70)))
(assert (not (= (_ bv4 8) x80)))
(assert (not (= x60 x70)))
(assert (not (= x60 x80)))
(assert (not (= x70 x80)))
(assert (not (= (_ bv3 8) x11)))
(assert (not (= (_ bv3 8) x21)))
(assert (not (= (_ bv3 8) (_ bv1 8))))
(assert (not (= (_ bv3 8) (_ bv8 8))))
(assert (not (= (_ bv3 8) x51)))
(assert (not (= (_ bv3 8) (_ bv4 8))))
(assert (not (= (_ bv3 8) x71)))
(assert (not (= (_ bv3 8) x81)))
(assert (not (= x11 x21)))
(assert (not (= x11 (_ bv1 8))))
(assert (not (= x11 (_ bv8 8))))
(assert (not (= x11 x51)))
(assert (not (= x11 (_ bv4 8))))
(assert (not (= x11 x71)))
(assert (not (= x11 x81)))
(assert (not (= x21 (_ bv1 8))))
(assert (not (= x21 (_ bv8 8))))
(assert (not (= x21 x51)))
(assert (not (= x21 (_ bv4 8))))
(assert (not (= x21 x71)))
(assert (not (= x21 x81)))
(assert (not (= (_ bv1 8) (_ bv8 8))))
(assert (not (= (_ bv1 8) x51)))
(assert (not (= (_ bv1 8) (_ bv4 8))))
(assert (not (= (_ bv1 8) x71)))
(assert (not (= (_ bv1 8) x81)))
(assert (not (= (_ bv8 8) x51)))
(assert (not (= (_ bv8 8) (_ bv4 8))))
(assert (not (= (_ bv8 8) x71)))
(assert (not (= (_ bv8 8) x81)))
(assert (not (= x51 (_ bv4 8))))
(assert (not (= x51 x71)))
(assert (not (= x51 x81)))
(assert (not (= (_ bv4 8) x71)))
(assert (not (= (_ bv4 8) x81)))
(assert (not (= x71 x81)))
(assert (not (= x02 (_ bv7 8))))
(assert (not (= x02 x22)))
(assert (not (= x02 (_ bv3 8))))
(assert (not (= x02 x42)))
(assert (not (= x02 (_ bv5 8))))
(assert (not (= x02 (_ bv6 8))))
(assert (not (= x02 x72)))
(assert (not (= x02 (_ bv9 8))))
(assert (not (= (_ bv7 8) x22)))
(assert (not (= (_ bv7 8) (_ bv3 8))))
(assert (not (= (_ bv7 8) x42)))
(assert (not (= (_ bv7 8) (_ bv5 8))))
(assert (not (= (_ bv7 8) (_ bv6 8))))
(assert (not (= (_ bv7 8) x72)))
(assert (not (= (_ bv7 8) (_ bv9 8))))
(assert (not (= x22 (_ bv3 8))))
(assert (not (= x22 x42)))
(assert (not (= x22 (_ bv5 8))))
(assert (not (= x22 (_ bv6 8))))
(assert (not (= x22 x72)))
(assert (not (= x22 (_ bv9 8))))
(assert (not (= (_ bv3 8) x42)))
(assert (not (= (_ bv3 8) (_ bv5 8))))
(assert (not (= (_ bv3 8) (_ bv6 8))))
(assert (not (= (_ bv3 8) x72)))
(assert (not (= (_ bv3 8) (_ bv9 8))))
(assert (not (= x42 (_ bv5 8))))
(assert (not (= x42 (_ bv6 8))))
(assert (not (= x42 x72)))
(assert (not (= x42 (_ bv9 8))))
(assert (not (= (_ bv5 8) (_ bv6 8))))
(assert (not (= (_ bv5 8) x72)))
(assert (not (= (_ bv5 8) (_ bv9 8))))
(assert (not (= (_ bv6 8) x72)))
(assert (not (= (_ bv6 8) (_ bv9 8))))
(assert (not (= x72 (_ bv9 8))))
(assert (not (= x03 x13)))
(assert (not (= x03 x23)))
(assert (not (= x03 x33)))
(assert (not (= x03 x43)))
(assert (not (= x03 (_ bv2 8))))
(assert (not (= x03 x63)))
(assert (not (= x03 (_ bv4 8))))
(assert (not (= x03 x83)))
(assert (not (= x13 x23)))
(assert (not (= x13 x33)))
(assert (not (= x13 x43)))
(assert (not (= x13 (_ bv2 8))))
(assert (not (= x13 x63)))
(assert (not (= x13 (_ bv4 8))))
(assert (not (= x13 x83)))
(assert (not (= x23 x33)))
(assert (not (= x23 x43)))
(assert (not (= x23 (_ bv2 8))))
(assert (not (= x23 x63)))
(assert (not (= x23 (_ bv4 8))))
(assert (not (= x23 x83)))
(assert (not (= x33 x43)))
(assert (not (= x33 (_ bv2 8))))
(assert (not (= x33 x63)))
(assert (not (= x33 (_ bv4 8))))
(assert (not (= x33 x83)))
(assert (not (= x43 (_ bv2 8))))
(assert (not (= x43 x63)))
(assert (not (= x43 (_ bv4 8))))
(assert (not (= x43 x83)))
(assert (not (= (_ bv2 8) x63)))
(assert (not (= (_ bv2 8) (_ bv4 8))))
(assert (not (= (_ bv2 8) x83)))
(assert (not (= x63 (_ bv4 8))))
(assert (not (= x63 x83)))
(assert (not (= (_ bv4 8) x83)))
(assert (not (= (_ bv1 8) x14)))
(assert (not (= (_ bv1 8) x24)))
(assert (not (= (_ bv1 8) (_ bv5 8))))
(assert (not (= (_ bv1 8) (_ bv3 8))))
(assert (not (= (_ bv1 8) x54)))
(assert (not (= (_ bv1 8) x64)))
(assert (not (= (_ bv1 8) x74)))
(assert (not (= (_ bv1 8) (_ bv2 8))))
(assert (not (= x14 x24)))
(assert (not (= x14 (_ bv5 8))))
(assert (not (= x14 (_ bv3 8))))
(assert (not (= x14 x54)))
(assert (not (= x14 x64)))
(assert (not (= x14 x74)))
(assert (not (= x14 (_ bv2 8))))
(assert (not (= x24 (_ bv5 8))))
(assert (not (= x24 (_ bv3 8))))
(assert (not (= x24 x54)))
(assert (not (= x24 x64)))
(assert (not (= x24 x74)))
(assert (not (= x24 (_ bv2 8))))
(assert (not (= (_ bv5 8) (_ bv3 8))))
(assert (not (= (_ bv5 8) x54)))
(assert (not (= (_ bv5 8) x64)))
(assert (not (= (_ bv5 8) x74)))
(assert (not (= (_ bv5 8) (_ bv2 8))))
(assert (not (= (_ bv3 8) x54)))
(assert (not (= (_ bv3 8) x64)))
(assert (not (= (_ bv3 8) x74)))
(assert (not (= (_ bv3 8) (_ bv2 8))))
(assert (not (= x54 x64)))
(assert (not (= x54 x74)))
(assert (not (= x54 (_ bv2 8))))
(assert (not (= x64 x74)))
(assert (not (= x64 (_ bv2 8))))
(assert (not (= x74 (_ bv2 8))))
(assert (not (= x05 (_ bv6 8))))
(assert (not (= x05 (_ bv9 8))))
(assert (not (= x05 x35)))
(assert (not (= x05 (_ bv1 8))))
(assert (not (= x05 x55)))
(assert (not (= x05 (_ bv5 8))))
(assert (not (= x05 (_ bv7 8))))
(assert (not (= x05 x85)))
(assert (not (= (_ bv6 8) (_ bv9 8))))
(assert (not (= (_ bv6 8) x35)))
(assert (not (= (_ bv6 8) (_ bv1 8))))
(assert (not (= (_ bv6 8) x55)))
(assert (not (= (_ bv6 8) (_ bv5 8))))
(assert (not (= (_ bv6 8) (_ bv7 8))))
(assert (not (= (_ bv6 8) x85)))
(assert (not (= (_ bv9 8) x35)))
(assert (not (= (_ bv9 8) (_ bv1 8))))
(assert (not (= (_ bv9 8) x55)))
(assert (not (= (_ bv9 8) (_ bv5 8))))
(assert (not (= (_ bv9 8) (_ bv7 8))))
(assert (not (= (_ bv9 8) x85)))
(assert (not (= x35 (_ bv1 8))))
(assert (not (= x35 x55)))
(assert (not (= x35 (_ bv5 8))))
(assert (not (= x35 (_ bv7 8))))
(assert (not (= x35 x85)))
(assert (not (= (_ bv1 8) x55)))
(assert (not (= (_ bv1 8) (_ bv5 8))))
(assert (not (= (_ bv1 8) (_ bv7 8))))
(assert (not (= (_ bv1 8) x85)))
(assert (not (= x55 (_ bv5 8))))
(assert (not (= x55 (_ bv7 8))))
(assert (not (= x55 x85)))
(assert (not (= (_ bv5 8) (_ bv7 8))))
(assert (not (= (_ bv5 8) x85)))
(assert (not (= (_ bv7 8) x85)))
(assert (not (= x06 x16)))
(assert (not (= x06 (_ bv4 8))))
(assert (not (= x06 (_ bv2 8))))
(assert (not (= x06 x46)))
(assert (not (= x06 x56)))
(assert (not (= x06 x66)))
(assert (not (= x06 x76)))
(assert (not (= x06 (_ bv6 8))))
(assert (not (= x16 (_ bv4 8))))
(assert (not (= x16 (_ bv2 8))))
(assert (not (= x16 x46)))
(assert (not (= x16 x56)))
(assert (not (= x16 x66)))
(assert (not (= x16 x76)))
(assert (not (= x16 (_ bv6 8))))
(assert (not (= (_ bv4 8) (_ bv2 8))))
(assert (not (= (_ bv4 8) x46)))
(assert (not (= (_ bv4 8) x56)))
(assert (not (= (_ bv4 8) x66)))
(assert (not (= (_ bv4 8) x76)))
(assert (not (= (_ bv4 8) (_ bv6 8))))
(assert (not (= (_ bv2 8) x46)))
(assert (not (= (_ bv2 8) x56)))
(assert (not (= (_ bv2 8) x66)))
(assert (not (= (_ bv2 8) x76)))
(assert (not (= (_ bv2 8) (_ bv6 8))))
(assert (not (= x46 x56)))
(assert (not (= x46 x66)))
(assert (not (= x46 x76)))
(assert (not (= x46 (_ bv6 8))))
(assert (not (= x56 x66)))
(assert (not (= x56 x76)))
(assert (not (= x56 (_ bv6 8))))
(assert (not (= x66 x76)))
(assert (not (= x66 (_ bv6 8))))
(assert (not (= x76 (_ bv6 8))))
(assert (not (= x07 (_ bv5 8))))
(assert (not (= x07 x27)))
(assert (not (= x07 x37)))
(assert (not (= x07 x47)))
(assert (not (= x07 (_ bv7 8))))
(assert (not (= x07 x67)))
(assert (not (= x07 (_ bv1 8))))
(assert (not (= x07 x87)))
(assert (not (= (_ bv5 8) x27)))
(assert (not (= (_ bv5 8) x37)))
(assert (not (= (_ bv5 8) x47)))
(assert (not (= (_ bv5 8) (_ bv7 8))))
(assert (not (= (_ bv5 8) x67)))
(assert (not (= (_ bv5 8) (_ bv1 8))))
(assert (not (= (_ bv5 8) x87)))
(assert (not (= x27 x37)))
(assert (not (= x27 x47)))
(assert (not (= x27 (_ bv7 8))))
(assert (not (= x27 x67)))
(assert (not (= x27 (_ bv1 8))))
(assert (not (= x27 x87)))
(assert (not (= x37 x47)))
(assert (not (= x37 (_ bv7 8))))
(assert (not (= x37 x67)))
(assert (not (= x37 (_ bv1 8))))
(assert (not (= x37 x87)))
(assert (not (= x47 (_ bv7 8))))
(assert (not (= x47 x67)))
(assert (not (= x47 (_ bv1 8))))
(assert (not (= x47 x87)))
(assert (not (= (_ bv7 8) x67)))
(assert (not (= (_ bv7 8) (_ bv1 8))))
(assert (not (= (_ bv7 8) x87)))
(assert (not (= x67 (_ bv1 8))))
(assert (not (= x67 x87)))
(assert (not (= (_ bv1 8) x87)))
(assert (not (= (_ bv7 8) x18)))
(assert (not (= (_ bv7 8) x28)))
(assert (not (= (_ bv7 8) (_ bv9 8))))
(assert (not (= (_ bv7 8) (_ bv4 8))))
(assert (not (= (_ bv7 8) x58)))
(assert (not (= (_ bv7 8) (_ bv3 8))))
(assert (not (= (_ bv7 8) (_ bv5 8))))
(assert (not (= (_ bv7 8) x88)))
(assert (not (= x18 x28)))
(assert (not (= x18 (_ bv9 8))))
(assert (not (= x18 (_ bv4 8))))
(assert (not (= x18 x58)))
(assert (not (= x18 (_ bv3 8))))
(assert (not (= x18 (_ bv5 8))))
(assert (not (= x18 x88)))
(assert (not (= x28 (_ bv9 8))))
(assert (not (= x28 (_ bv4 8))))
(assert (not (= x28 x58)))
(assert (not (= x28 (_ bv3 8))))
(assert (not (= x28 (_ bv5 8))))
(assert (not (= x28 x88)))
(assert (not (= (_ bv9 8) (_ bv4 8))))
(assert (not (= (_ bv9 8) x58)))
(assert (not (= (_ bv9 8) (_ bv3 8))))
(assert (not (= (_ bv9 8) (_ bv5 8))))
(assert (not (= (_ bv9 8) x88)))
(assert (not (= (_ bv4 8) x58)))
(assert (not (= (_ bv4 8) (_ bv3 8))))
(assert (not (= (_ bv4 8) (_ bv5 8))))
(assert (not (= (_ bv4 8) x88)))
(assert (not (= x58 (_ bv3 8))))
(assert (not (= x58 (_ bv5 8))))
(assert (not (= x58 x88)))
(assert (not (= (_ bv3 8) (_ bv5 8))))
(assert (not (= (_ bv3 8) x88)))
(assert (not (= (_ bv5 8) x88)))
(assert (not (= (_ bv6 8) (_ bv3 8))))
(assert (not (= (_ bv6 8) x02)))
(assert (not (= (_ bv6 8) (_ bv8 8))))
(assert (not (= (_ bv6 8) x11)))
(assert (not (= (_ bv6 8) (_ bv7 8))))
(assert (not (= (_ bv6 8) (_ bv2 8))))
(assert (not (= (_ bv6 8) x21)))
(assert (not (= (_ bv6 8) x22)))
(assert (not (= (_ bv3 8) x02)))
(assert (not (= (_ bv3 8) (_ bv8 8))))
(assert (not (= (_ bv3 8) x11)))
(assert (not (= (_ bv3 8) (_ bv7 8))))
(assert (not (= (_ bv3 8) (_ bv2 8))))
(assert (not (= (_ bv3 8) x21)))
(assert (not (= (_ bv3 8) x22)))
(assert (not (= x02 (_ bv8 8))))
(assert (not (= x02 x11)))
(assert (not (= x02 (_ bv7 8))))
(assert (not (= x02 (_ bv2 8))))
(assert (not (= x02 x21)))
(assert (not (= x02 x22)))
(assert (not (= (_ bv8 8) x11)))
(assert (not (= (_ bv8 8) (_ bv7 8))))
(assert (not (= (_ bv8 8) (_ bv2 8))))
(assert (not (= (_ bv8 8) x21)))
(assert (not (= (_ bv8 8) x22)))
(assert (not (= x11 (_ bv7 8))))
(assert (not (= x11 (_ bv2 8))))
(assert (not (= x11 x21)))
(assert (not (= x11 x22)))
(assert (not (= (_ bv7 8) (_ bv2 8))))
(assert (not (= (_ bv7 8) x21)))
(assert (not (= (_ bv7 8) x22)))
(assert (not (= (_ bv2 8) x21)))
(assert (not (= (_ bv2 8) x22)))
(assert (not (= x21 x22)))
(assert (not (= x03 (_ bv1 8))))
(assert (not (= x03 x05)))
(assert (not (= x03 x13)))
(assert (not (= x03 x14)))
(assert (not (= x03 (_ bv6 8))))
(assert (not (= x03 x23)))
(assert (not (= x03 x24)))
(assert (not (= x03 (_ bv9 8))))
(assert (not (= (_ bv1 8) x05)))
(assert (not (= (_ bv1 8) x13)))
(assert (not (= (_ bv1 8) x14)))
(assert (not (= (_ bv1 8) (_ bv6 8))))
(assert (not (= (_ bv1 8) x23)))
(assert (not (= (_ bv1 8) x24)))
(assert (not (= (_ bv1 8) (_ bv9 8))))
(assert (not (= x05 x13)))
(assert (not (= x05 x14)))
(assert (not (= x05 (_ bv6 8))))
(assert (not (= x05 x23)))
(assert (not (= x05 x24)))
(assert (not (= x05 (_ bv9 8))))
(assert (not (= x13 x14)))
(assert (not (= x13 (_ bv6 8))))
(assert (not (= x13 x23)))
(assert (not (= x13 x24)))
(assert (not (= x13 (_ bv9 8))))
(assert (not (= x14 (_ bv6 8))))
(assert (not (= x14 x23)))
(assert (not (= x14 x24)))
(assert (not (= x14 (_ bv9 8))))
(assert (not (= (_ bv6 8) x23)))
(assert (not (= (_ bv6 8) x24)))
(assert (not (= (_ bv6 8) (_ bv9 8))))
(assert (not (= x23 x24)))
(assert (not (= x23 (_ bv9 8))))
(assert (not (= x24 (_ bv9 8))))
(assert (not (= x06 x07)))
(assert (not (= x06 (_ bv7 8))))
(assert (not (= x06 x16)))
(assert (not (= x06 (_ bv5 8))))
(assert (not (= x06 x18)))
(assert (not (= x06 (_ bv4 8))))
(assert (not (= x06 x27)))
(assert (not (= x06 x28)))
(assert (not (= x07 (_ bv7 8))))
(assert (not (= x07 x16)))
(assert (not (= x07 (_ bv5 8))))
(assert (not (= x07 x18)))
(assert (not (= x07 (_ bv4 8))))
(assert (not (= x07 x27)))
(assert (not (= x07 x28)))
(assert (not (= (_ bv7 8) x16)))
(assert (not (= (_ bv7 8) (_ bv5 8))))
(assert (not (= (_ bv7 8) x18)))
(assert (not (= (_ bv7 8) (_ bv4 8))))
(assert (not (= (_ bv7 8) x27)))
(assert (not (= (_ bv7 8) x28)))
(assert (not (= x16 (_ bv5 8))))
(assert (not (= x16 x18)))
(assert (not (= x16 (_ bv4 8))))
(assert (not (= x16 x27)))
(assert (not (= x16 x28)))
(assert (not (= (_ bv5 8) x18)))
(assert (not (= (_ bv5 8) (_ bv4 8))))
(assert (not (= (_ bv5 8) x27)))
(assert (not (= (_ bv5 8) x28)))
(assert (not (= x18 (_ bv4 8))))
(assert (not (= x18 x27)))
(assert (not (= x18 x28)))
(assert (not (= (_ bv4 8) x27)))
(assert (not (= (_ bv4 8) x28)))
(assert (not (= x27 x28)))
(assert (not (= x30 (_ bv1 8))))
(assert (not (= x30 (_ bv3 8))))
(assert (not (= x30 x40)))
(assert (not (= x30 (_ bv8 8))))
(assert (not (= x30 x42)))
(assert (not (= x30 (_ bv4 8))))
(assert (not (= x30 x51)))
(assert (not (= x30 (_ bv5 8))))
(assert (not (= (_ bv1 8) (_ bv3 8))))
(assert (not (= (_ bv1 8) x40)))
(assert (not (= (_ bv1 8) (_ bv8 8))))
(assert (not (= (_ bv1 8) x42)))
(assert (not (= (_ bv1 8) (_ bv4 8))))
(assert (not (= (_ bv1 8) x51)))
(assert (not (= (_ bv1 8) (_ bv5 8))))
(assert (not (= (_ bv3 8) x40)))
(assert (not (= (_ bv3 8) (_ bv8 8))))
(assert (not (= (_ bv3 8) x42)))
(assert (not (= (_ bv3 8) (_ bv4 8))))
(assert (not (= (_ bv3 8) x51)))
(assert (not (= (_ bv3 8) (_ bv5 8))))
(assert (not (= x40 (_ bv8 8))))
(assert (not (= x40 x42)))
(assert (not (= x40 (_ bv4 8))))
(assert (not (= x40 x51)))
(assert (not (= x40 (_ bv5 8))))
(assert (not (= (_ bv8 8) x42)))
(assert (not (= (_ bv8 8) (_ bv4 8))))
(assert (not (= (_ bv8 8) x51)))
(assert (not (= (_ bv8 8) (_ bv5 8))))
(assert (not (= x42 (_ bv4 8))))
(assert (not (= x42 x51)))
(assert (not (= x42 (_ bv5 8))))
(assert (not (= (_ bv4 8) x51)))
(assert (not (= (_ bv4 8) (_ bv5 8))))
(assert (not (= x51 (_ bv5 8))))
(assert (not (= x33 (_ bv5 8))))
(assert (not (= x33 x35)))
(assert (not (= x33 x43)))
(assert (not (= x33 (_ bv3 8))))
(assert (not (= x33 (_ bv1 8))))
(assert (not (= x33 (_ bv2 8))))
(assert (not (= x33 x54)))
(assert (not (= x33 x55)))
(assert (not (= (_ bv5 8) x35)))
(assert (not (= (_ bv5 8) x43)))
(assert (not (= (_ bv5 8) (_ bv3 8))))
(assert (not (= (_ bv5 8) (_ bv1 8))))
(assert (not (= (_ bv5 8) (_ bv2 8))))
(assert (not (= (_ bv5 8) x54)))
(assert (not (= (_ bv5 8) x55)))
(assert (not (= x35 x43)))
(assert (not (= x35 (_ bv3 8))))
(assert (not (= x35 (_ bv1 8))))
(assert (not (= x35 (_ bv2 8))))
(assert (not (= x35 x54)))
(assert (not (= x35 x55)))
(assert (not (= x43 (_ bv3 8))))
(assert (not (= x43 (_ bv1 8))))
(assert (not (= x43 (_ bv2 8))))
(assert (not (= x43 x54)))
(assert (not (= x43 x55)))
(assert (not (= (_ bv3 8) (_ bv1 8))))
(assert (not (= (_ bv3 8) (_ bv2 8))))
(assert (not (= (_ bv3 8) x54)))
(assert (not (= (_ bv3 8) x55)))
(assert (not (= (_ bv1 8) (_ bv2 8))))
(assert (not (= (_ bv1 8) x54)))
(assert (not (= (_ bv1 8) x55)))
(assert (not (= (_ bv2 8) x54)))
(assert (not (= (_ bv2 8) x55)))
(assert (not (= x54 x55)))
(assert (not (= (_ bv2 8) x37)))
(assert (not (= (_ bv2 8) (_ bv9 8))))
(assert (not (= (_ bv2 8) x46)))
(assert (not (= (_ bv2 8) x47)))
(assert (not (= (_ bv2 8) (_ bv4 8))))
(assert (not (= (_ bv2 8) x56)))
(assert (not (= (_ bv2 8) (_ bv7 8))))
(assert (not (= (_ bv2 8) x58)))
(assert (not (= x37 (_ bv9 8))))
(assert (not (= x37 x46)))
(assert (not (= x37 x47)))
(assert (not (= x37 (_ bv4 8))))
(assert (not (= x37 x56)))
(assert (not (= x37 (_ bv7 8))))
(assert (not (= x37 x58)))
(assert (not (= (_ bv9 8) x46)))
(assert (not (= (_ bv9 8) x47)))
(assert (not (= (_ bv9 8) (_ bv4 8))))
(assert (not (= (_ bv9 8) x56)))
(assert (not (= (_ bv9 8) (_ bv7 8))))
(assert (not (= (_ bv9 8) x58)))
(assert (not (= x46 x47)))
(assert (not (= x46 (_ bv4 8))))
(assert (not (= x46 x56)))
(assert (not (= x46 (_ bv7 8))))
(assert (not (= x46 x58)))
(assert (not (= x47 (_ bv4 8))))
(assert (not (= x47 x56)))
(assert (not (= x47 (_ bv7 8))))
(assert (not (= x47 x58)))
(assert (not (= (_ bv4 8) x56)))
(assert (not (= (_ bv4 8) (_ bv7 8))))
(assert (not (= (_ bv4 8) x58)))
(assert (not (= x56 (_ bv7 8))))
(assert (not (= x56 x58)))
(assert (not (= (_ bv7 8) x58)))
(assert (not (= x60 (_ bv4 8))))
(assert (not (= x60 (_ bv6 8))))
(assert (not (= x60 x70)))
(assert (not (= x60 x71)))
(assert (not (= x60 x72)))
(assert (not (= x60 x80)))
(assert (not (= x60 x81)))
(assert (not (= x60 (_ bv9 8))))
(assert (not (= (_ bv4 8) (_ bv6 8))))
(assert (not (= (_ bv4 8) x70)))
(assert (not (= (_ bv4 8) x71)))
(assert (not (= (_ bv4 8) x72)))
(assert (not (= (_ bv4 8) x80)))
(assert (not (= (_ bv4 8) x81)))
(assert (not (= (_ bv4 8) (_ bv9 8))))
(assert (not (= (_ bv6 8) x70)))
(assert (not (= (_ bv6 8) x71)))
(assert (not (= (_ bv6 8) x72)))
(assert (not (= (_ bv6 8) x80)))
(assert (not (= (_ bv6 8) x81)))
(assert (not (= (_ bv6 8) (_ bv9 8))))
(assert (not (= x70 x71)))
(assert (not (= x70 x72)))
(assert (not (= x70 x80)))
(assert (not (= x70 x81)))
(assert (not (= x70 (_ bv9 8))))
(assert (not (= x71 x72)))
(assert (not (= x71 x80)))
(assert (not (= x71 x81)))
(assert (not (= x71 (_ bv9 8))))
(assert (not (= x72 x80)))
(assert (not (= x72 x81)))
(assert (not (= x72 (_ bv9 8))))
(assert (not (= x80 x81)))
(assert (not (= x80 (_ bv9 8))))
(assert (not (= x81 (_ bv9 8))))
(assert (not (= x63 x64)))
(assert (not (= x63 (_ bv5 8))))
(assert (not (= x63 (_ bv4 8))))
(assert (not (= x63 x74)))
(assert (not (= x63 (_ bv7 8))))
(assert (not (= x63 x83)))
(assert (not (= x63 (_ bv2 8))))
(assert (not (= x63 x85)))
(assert (not (= x64 (_ bv5 8))))
(assert (not (= x64 (_ bv4 8))))
(assert (not (= x64 x74)))
(assert (not (= x64 (_ bv7 8))))
(assert (not (= x64 x83)))
(assert (not (= x64 (_ bv2 8))))
(assert (not (= x64 x85)))
(assert (not (= (_ bv5 8) (_ bv4 8))))
(assert (not (= (_ bv5 8) x74)))
(assert (not (= (_ bv5 8) (_ bv7 8))))
(assert (not (= (_ bv5 8) x83)))
(assert (not (= (_ bv5 8) (_ bv2 8))))
(assert (not (= (_ bv5 8) x85)))
(assert (not (= (_ bv4 8) x74)))
(assert (not (= (_ bv4 8) (_ bv7 8))))
(assert (not (= (_ bv4 8) x83)))
(assert (not (= (_ bv4 8) (_ bv2 8))))
(assert (not (= (_ bv4 8) x85)))
(assert (not (= x74 (_ bv7 8))))
(assert (not (= x74 x83)))
(assert (not (= x74 (_ bv2 8))))
(assert (not (= x74 x85)))
(assert (not (= (_ bv7 8) x83)))
(assert (not (= (_ bv7 8) (_ bv2 8))))
(assert (not (= (_ bv7 8) x85)))
(assert (not (= x83 (_ bv2 8))))
(assert (not (= x83 x85)))
(assert (not (= (_ bv2 8) x85)))
(assert (not (= x66 x67)))
(assert (not (= x66 (_ bv3 8))))
(assert (not (= x66 x76)))
(assert (not (= x66 (_ bv1 8))))
(assert (not (= x66 (_ bv5 8))))
(assert (not (= x66 (_ bv6 8))))
(assert (not (= x66 x87)))
(assert (not (= x66 x88)))
(assert (not (= x67 (_ bv3 8))))
(assert (not (= x67 x76)))
(assert (not (= x67 (_ bv1 8))))
(assert (not (= x67 (_ bv5 8))))
(assert (not (= x67 (_ bv6 8))))
(assert (not (= x67 x87)))
(assert (not (= x67 x88)))
(assert (not (= (_ bv3 8) x76)))
(assert (not (= (_ bv3 8) (_ bv1 8))))
(assert (not (= (_ bv3 8) (_ bv5 8))))
(assert (not (= (_ bv3 8) (_ bv6 8))))
(assert (not (= (_ bv3 8) x87)))
(assert (not (= (_ bv3 8) x88)))
(assert (not (= x76 (_ bv1 8))))
(assert (not (= x76 (_ bv5 8))))
(assert (not (= x76 (_ bv6 8))))
(assert (not (= x76 x87)))
(assert (not (= x76 x88)))
(assert (not (= (_ bv1 8) (_ bv5 8))))
(assert (not (= (_ bv1 8) (_ bv6 8))))
(assert (not (= (_ bv1 8) x87)))
(assert (not (= (_ bv1 8) x88)))
(assert (not (= (_ bv5 8) (_ bv6 8))))
(assert (not (= (_ bv5 8) x87)))
(assert (not (= (_ bv5 8) x88)))
(assert (not (= (_ bv6 8) x87)))
(assert (not (= (_ bv6 8) x88)))
(assert (not (= x87 x88)))
(check-sat)
(exit)
